20	5
0	4	1	3	2	4
1	1	9
2	6	17	16	15	19	14	20
3	4	19	12	6	14
4	2	10	11
5	3	11	8	18
6	1	15
7	3	12	17	15
8	2	16	20
9	2	13	18
10	2	8	12
11	2	16	20
12	2	16	20
13	4	12	19	8	14
14	1	21
15	1	21
16	1	21
17	1	21
18	1	21
19	1	21
20	1	21
21	0
0	0	0	0	0	0	0
1	10	5	3	3	5	1
2	7	3	2	5	4	3
3	9	4	3	4	5	5
4	1	2	4	4	3	4
5	10	2	1	4	3	5
6	6	3	3	5	1	1
7	5	2	3	3	1	5
8	5	4	1	5	5	1
9	8	1	5	2	1	1
10	10	1	5	1	1	3
11	5	5	1	3	4	2
12	9	4	1	5	3	5
13	4	4	2	5	3	2
14	1	5	3	1	3	2
15	5	1	4	4	5	5
16	4	5	4	1	2	1
17	4	3	2	1	4	5
18	9	2	3	5	5	3
19	8	4	3	4	2	4
20	5	2	1	5	5	5
21	0	0	0	0	0	0
10	12	12	10	9
